Geometry = GenFormat {
4 S
B N
1 1        1.2491199945     3.6059709434     1.6589249927
2 1        0.0000000000     2.8846469423     4.9767749781
3 2       1.2491199945     3.6059709434     4.9767749781
4 2       0.0000000000     2.8846469423     1.6589249927
0.000000  0.000000  0.000000
    1.2491199945    -2.1635392952     0.0000000000
    1.2491199945     2.1635392952     0.0000000000
    0.0000000000     0.0000000000     6.6356999708
}
Hamiltonian = DFTB {
   SCC = no
   OrbitalResolvedSCC=no
#   ReadInitialCharges = Yes
#   MaxSCCIterations = 1
   SlaterKosterFiles = Type2FileNames {
   Prefix = "./"
   Separator = "-"
   Suffix = ".skf"
   LowerCaseTypeName = No
  }
  MaxAngularMomentum = {
    B = "p"
    N  = "p"
  }
 
  
  Filling = Fermi {
    Temperature [Kelvin] = 0.
    IndependentKFilling = No
  }
KPointsAndWeights = Klines {
1  0.0000000000  0.0000000000  0.0000000000
1  -0.0087719298  0.0087719298  0.0000000000
1  -0.0175438596  0.0175438596  0.0000000000
1  -0.0263157895  0.0263157895  0.0000000000
1  -0.0350877193  0.0350877193  0.0000000000
1  -0.0438596491  0.0438596491  0.0000000000
1  -0.0526315789  0.0526315789  0.0000000000
1  -0.0614035088  0.0614035088  0.0000000000
1  -0.0701754386  0.0701754386  0.0000000000
1  -0.0789473684  0.0789473684  0.0000000000
1  -0.0877192982  0.0877192982  0.0000000000
1  -0.0964912281  0.0964912281  0.0000000000
1  -0.1052631579  0.1052631579  0.0000000000
1  -0.1140350877  0.1140350877  0.0000000000
1  -0.1228070175  0.1228070175  0.0000000000
1  -0.1315789474  0.1315789474  0.0000000000
1  -0.1403508772  0.1403508772  0.0000000000
1  -0.1491228070  0.1491228070  0.0000000000
1  -0.1578947368  0.1578947368  0.0000000000
1  -0.1666666667  0.1666666667  0.0000000000
1  -0.1754385965  0.1754385965  0.0000000000
1  -0.1842105263  0.1842105263  0.0000000000
1  -0.1929824561  0.1929824561  0.0000000000
1  -0.2017543860  0.2017543860  0.0000000000
1  -0.2105263158  0.2105263158  0.0000000000
1  -0.2192982456  0.2192982456  0.0000000000
1  -0.2280701754  0.2280701754  0.0000000000
1  -0.2368421053  0.2368421053  0.0000000000
1  -0.2456140351  0.2456140351  0.0000000000
1  -0.2543859649  0.2543859649  0.0000000000
1  -0.2631578947  0.2631578947  0.0000000000
1  -0.2719298246  0.2719298246  0.0000000000
1  -0.2807017544  0.2807017544  0.0000000000
1  -0.2894736842  0.2894736842  0.0000000000
1  -0.2982456140  0.2982456140  0.0000000000
1  -0.3070175439  0.3070175439  0.0000000000
1  -0.3157894737  0.3157894737  0.0000000000
1  -0.3245614035  0.3245614035  0.0000000000
1  -0.3333333333  0.3333333333  0.0000000000
1  -0.3421052632  0.3421052632  0.0000000000
1  -0.3508771930  0.3508771930  0.0000000000
1  -0.3596491228  0.3596491228  0.0000000000
1  -0.3684210526  0.3684210526  0.0000000000
1  -0.3771929825  0.3771929825  0.0000000000
1  -0.3859649123  0.3859649123  0.0000000000
1  -0.3947368421  0.3947368421  0.0000000000
1  -0.4035087719  0.4035087719  0.0000000000
1  -0.4122807018  0.4122807018  0.0000000000
1  -0.4210526316  0.4210526316  0.0000000000
1  -0.4298245614  0.4298245614  0.0000000000
1  -0.4385964912  0.4385964912  0.0000000000
1  -0.4473684211  0.4473684211  0.0000000000
1  -0.4561403509  0.4561403509  0.0000000000
1  -0.4649122807  0.4649122807  0.0000000000
1  -0.4736842105  0.4736842105  0.0000000000
1  -0.4824561404  0.4824561404  0.0000000000
1  -0.4912280702  0.4912280702  0.0000000000
1  -0.5000000000  0.5000000000  0.0000000000
1  -0.4947916667  0.5052083333  0.0000000000
1  -0.4895833333  0.5104166667  0.0000000000
1  -0.4843750000  0.5156250000  0.0000000000
1  -0.4791666667  0.5208333333  0.0000000000
1  -0.4739583333  0.5260416667  0.0000000000
1  -0.4687500000  0.5312500000  0.0000000000
1  -0.4635416667  0.5364583333  0.0000000000
1  -0.4583333333  0.5416666667  0.0000000000
1  -0.4531250000  0.5468750000  0.0000000000
1  -0.4479166667  0.5520833333  0.0000000000
1  -0.4427083333  0.5572916667  0.0000000000
1  -0.4375000000  0.5625000000  0.0000000000
1  -0.4322916667  0.5677083333  0.0000000000
1  -0.4270833333  0.5729166667  0.0000000000
1  -0.4218750000  0.5781250000  0.0000000000
1  -0.4166666667  0.5833333333  0.0000000000
1  -0.4114583333  0.5885416667  0.0000000000
1  -0.4062500000  0.5937500000  0.0000000000
1  -0.4010416667  0.5989583333  0.0000000000
1  -0.3958333333  0.6041666667  0.0000000000
1  -0.3906250000  0.6093750000  0.0000000000
1  -0.3854166667  0.6145833333  0.0000000000
1  -0.3802083333  0.6197916667  0.0000000000
1  -0.3750000000  0.6250000000  0.0000000000
1  -0.3697916667  0.6302083333  0.0000000000
1  -0.3645833333  0.6354166667  0.0000000000
1  -0.3593750000  0.6406250000  0.0000000000
1  -0.3541666667  0.6458333333  0.0000000000
1  -0.3489583333  0.6510416667  0.0000000000
1  -0.3437500000  0.6562500000  0.0000000000
1  -0.3385416667  0.6614583333  0.0000000000
1  -0.3333333333  0.6666666667  0.0000000000
1  0.3333333333  0.3333333333  0.0000000000
1  0.3282828283  0.3282828283  0.0000000000
1  0.3232323232  0.3232323232  0.0000000000
1  0.3181818182  0.3181818182  0.0000000000
1  0.3131313131  0.3131313131  0.0000000000
1  0.3080808081  0.3080808081  0.0000000000
1  0.3030303030  0.3030303030  0.0000000000
1  0.2979797980  0.2979797980  0.0000000000
1  0.2929292929  0.2929292929  0.0000000000
1  0.2878787879  0.2878787879  0.0000000000
1  0.2828282828  0.2828282828  0.0000000000
1  0.2777777778  0.2777777778  0.0000000000
1  0.2727272727  0.2727272727  0.0000000000
1  0.2676767677  0.2676767677  0.0000000000
1  0.2626262626  0.2626262626  0.0000000000
1  0.2575757576  0.2575757576  0.0000000000
1  0.2525252525  0.2525252525  0.0000000000
1  0.2474747475  0.2474747475  0.0000000000
1  0.2424242424  0.2424242424  0.0000000000
1  0.2373737374  0.2373737374  0.0000000000
1  0.2323232323  0.2323232323  0.0000000000
1  0.2272727273  0.2272727273  0.0000000000
1  0.2222222222  0.2222222222  0.0000000000
1  0.2171717172  0.2171717172  0.0000000000
1  0.2121212121  0.2121212121  0.0000000000
1  0.2070707071  0.2070707071  0.0000000000
1  0.2020202020  0.2020202020  0.0000000000
1  0.1969696970  0.1969696970  0.0000000000
1  0.1919191919  0.1919191919  0.0000000000
1  0.1868686869  0.1868686869  0.0000000000
1  0.1818181818  0.1818181818  0.0000000000
1  0.1767676768  0.1767676768  0.0000000000
1  0.1717171717  0.1717171717  0.0000000000
1  0.1666666667  0.1666666667  0.0000000000
1  0.1616161616  0.1616161616  0.0000000000
1  0.1565656566  0.1565656566  0.0000000000
1  0.1515151515  0.1515151515  0.0000000000
1  0.1464646465  0.1464646465  0.0000000000
1  0.1414141414  0.1414141414  0.0000000000
1  0.1363636364  0.1363636364  0.0000000000
1  0.1313131313  0.1313131313  0.0000000000
1  0.1262626263  0.1262626263  0.0000000000
1  0.1212121212  0.1212121212  0.0000000000
1  0.1161616162  0.1161616162  0.0000000000
1  0.1111111111  0.1111111111  0.0000000000
1  0.1060606061  0.1060606061  0.0000000000
1  0.1010101010  0.1010101010  0.0000000000
1  0.0959595960  0.0959595960  0.0000000000
1  0.0909090909  0.0909090909  0.0000000000
1  0.0858585859  0.0858585859  0.0000000000
1  0.0808080808  0.0808080808  0.0000000000
1  0.0757575758  0.0757575758  0.0000000000
1  0.0707070707  0.0707070707  0.0000000000
1  0.0656565657  0.0656565657  0.0000000000
1  0.0606060606  0.0606060606  0.0000000000
1  0.0555555556  0.0555555556  0.0000000000
1  0.0505050505  0.0505050505  0.0000000000
1  0.0454545455  0.0454545455  0.0000000000
1  0.0404040404  0.0404040404  0.0000000000
1  0.0353535354  0.0353535354  0.0000000000
1  0.0303030303  0.0303030303  0.0000000000
1  0.0252525253  0.0252525253  0.0000000000
1  0.0202020202  0.0202020202  0.0000000000
1  0.0151515152  0.0151515152  0.0000000000
1  0.0101010101  0.0101010101  0.0000000000
1  0.0050505051  0.0050505051  0.0000000000
1  0.0000000000  0.0000000000  0.0000000000
1  0.0000000000  0.0000000000  0.0294117647
1  0.0000000000  0.0000000000  0.0588235294
1  0.0000000000  0.0000000000  0.0882352941
1  0.0000000000  0.0000000000  0.1176470588
1  0.0000000000  0.0000000000  0.1470588235
1  0.0000000000  0.0000000000  0.1764705882
1  0.0000000000  0.0000000000  0.2058823529
1  0.0000000000  0.0000000000  0.2352941176
1  0.0000000000  0.0000000000  0.2647058824
1  0.0000000000  0.0000000000  0.2941176471
1  0.0000000000  0.0000000000  0.3235294118
1  0.0000000000  0.0000000000  0.3529411765
1  0.0000000000  0.0000000000  0.3823529412
1  0.0000000000  0.0000000000  0.4117647059
1  0.0000000000  0.0000000000  0.4411764706
1  0.0000000000  0.0000000000  0.4705882353
1  0.0000000000  0.0000000000  0.5000000000
1  0.0050505051  0.0050505051  0.5000000000
1  0.0101010101  0.0101010101  0.5000000000
1  0.0151515152  0.0151515152  0.5000000000
1  0.0202020202  0.0202020202  0.5000000000
1  0.0252525253  0.0252525253  0.5000000000
1  0.0303030303  0.0303030303  0.5000000000
1  0.0353535354  0.0353535354  0.5000000000
1  0.0404040404  0.0404040404  0.5000000000
1  0.0454545455  0.0454545455  0.5000000000
1  0.0505050505  0.0505050505  0.5000000000
1  0.0555555556  0.0555555556  0.5000000000
1  0.0606060606  0.0606060606  0.5000000000
1  0.0656565657  0.0656565657  0.5000000000
1  0.0707070707  0.0707070707  0.5000000000
1  0.0757575758  0.0757575758  0.5000000000
1  0.0808080808  0.0808080808  0.5000000000
1  0.0858585859  0.0858585859  0.5000000000
1  0.0909090909  0.0909090909  0.5000000000
1  0.0959595960  0.0959595960  0.5000000000
1  0.1010101010  0.1010101010  0.5000000000
1  0.1060606061  0.1060606061  0.5000000000
1  0.1111111111  0.1111111111  0.5000000000
1  0.1161616162  0.1161616162  0.5000000000
1  0.1212121212  0.1212121212  0.5000000000
1  0.1262626263  0.1262626263  0.5000000000
1  0.1313131313  0.1313131313  0.5000000000
1  0.1363636364  0.1363636364  0.5000000000
1  0.1414141414  0.1414141414  0.5000000000
1  0.1464646465  0.1464646465  0.5000000000
1  0.1515151515  0.1515151515  0.5000000000
1  0.1565656566  0.1565656566  0.5000000000
1  0.1616161616  0.1616161616  0.5000000000
1  0.1666666667  0.1666666667  0.5000000000
1  0.1717171717  0.1717171717  0.5000000000
1  0.1767676768  0.1767676768  0.5000000000
1  0.1818181818  0.1818181818  0.5000000000
1  0.1868686869  0.1868686869  0.5000000000
1  0.1919191919  0.1919191919  0.5000000000
1  0.1969696970  0.1969696970  0.5000000000
1  0.2020202020  0.2020202020  0.5000000000
1  0.2070707071  0.2070707071  0.5000000000
1  0.2121212121  0.2121212121  0.5000000000
1  0.2171717172  0.2171717172  0.5000000000
1  0.2222222222  0.2222222222  0.5000000000
1  0.2272727273  0.2272727273  0.5000000000
1  0.2323232323  0.2323232323  0.5000000000
1  0.2373737374  0.2373737374  0.5000000000
1  0.2424242424  0.2424242424  0.5000000000
1  0.2474747475  0.2474747475  0.5000000000
1  0.2525252525  0.2525252525  0.5000000000
1  0.2575757576  0.2575757576  0.5000000000
1  0.2626262626  0.2626262626  0.5000000000
1  0.2676767677  0.2676767677  0.5000000000
1  0.2727272727  0.2727272727  0.5000000000
1  0.2777777778  0.2777777778  0.5000000000
1  0.2828282828  0.2828282828  0.5000000000
1  0.2878787879  0.2878787879  0.5000000000
1  0.2929292929  0.2929292929  0.5000000000
1  0.2979797980  0.2979797980  0.5000000000
1  0.3030303030  0.3030303030  0.5000000000
1  0.3080808081  0.3080808081  0.5000000000
1  0.3131313131  0.3131313131  0.5000000000
1  0.3181818182  0.3181818182  0.5000000000
1  0.3232323232  0.3232323232  0.5000000000
1  0.3282828283  0.3282828283  0.5000000000
1  0.3333333333  0.3333333333  0.5000000000
1  -0.3333333333  0.6666666667  0.5000000000
1  -0.3385416667  0.6614583333  0.5000000000
1  -0.3437500000  0.6562500000  0.5000000000
1  -0.3489583333  0.6510416667  0.5000000000
1  -0.3541666667  0.6458333333  0.5000000000
1  -0.3593750000  0.6406250000  0.5000000000
1  -0.3645833333  0.6354166667  0.5000000000
1  -0.3697916667  0.6302083333  0.5000000000
1  -0.3750000000  0.6250000000  0.5000000000
1  -0.3802083333  0.6197916667  0.5000000000
1  -0.3854166667  0.6145833333  0.5000000000
1  -0.3906250000  0.6093750000  0.5000000000
1  -0.3958333333  0.6041666667  0.5000000000
1  -0.4010416667  0.5989583333  0.5000000000
1  -0.4062500000  0.5937500000  0.5000000000
1  -0.4114583333  0.5885416667  0.5000000000
1  -0.4166666667  0.5833333333  0.5000000000
1  -0.4218750000  0.5781250000  0.5000000000
1  -0.4270833333  0.5729166667  0.5000000000
1  -0.4322916667  0.5677083333  0.5000000000
1  -0.4375000000  0.5625000000  0.5000000000
1  -0.4427083333  0.5572916667  0.5000000000
1  -0.4479166667  0.5520833333  0.5000000000
1  -0.4531250000  0.5468750000  0.5000000000
1  -0.4583333333  0.5416666667  0.5000000000
1  -0.4635416667  0.5364583333  0.5000000000
1  -0.4687500000  0.5312500000  0.5000000000
1  -0.4739583333  0.5260416667  0.5000000000
1  -0.4791666667  0.5208333333  0.5000000000
1  -0.4843750000  0.5156250000  0.5000000000
1  -0.4895833333  0.5104166667  0.5000000000
1  -0.4947916667  0.5052083333  0.5000000000
1  -0.5000000000  0.5000000000  0.5000000000
1  -0.5000000000  0.5000000000  0.4705882353
1  -0.5000000000  0.5000000000  0.4411764706
1  -0.5000000000  0.5000000000  0.4117647059
1  -0.5000000000  0.5000000000  0.3823529412
1  -0.5000000000  0.5000000000  0.3529411765
1  -0.5000000000  0.5000000000  0.3235294118
1  -0.5000000000  0.5000000000  0.2941176471
1  -0.5000000000  0.5000000000  0.2647058824
1  -0.5000000000  0.5000000000  0.2352941176
1  -0.5000000000  0.5000000000  0.2058823529
1  -0.5000000000  0.5000000000  0.1764705882
1  -0.5000000000  0.5000000000  0.1470588235
1  -0.5000000000  0.5000000000  0.1176470588
1  -0.5000000000  0.5000000000  0.0882352941
1  -0.5000000000  0.5000000000  0.0588235294
1  -0.5000000000  0.5000000000  0.0294117647
1  -0.5000000000  0.5000000000  0.0000000000
1  0.0000000000  0.0000000000  0.0000000000
1  0.0000000000  0.0087719298  0.0000000000
1  0.0000000000  0.0175438596  0.0000000000
1  0.0000000000  0.0263157895  0.0000000000
1  0.0000000000  0.0350877193  0.0000000000
1  0.0000000000  0.0438596491  0.0000000000
1  0.0000000000  0.0526315789  0.0000000000
1  0.0000000000  0.0614035088  0.0000000000
1  0.0000000000  0.0701754386  0.0000000000
1  0.0000000000  0.0789473684  0.0000000000
1  0.0000000000  0.0877192982  0.0000000000
1  0.0000000000  0.0964912281  0.0000000000
1  0.0000000000  0.1052631579  0.0000000000
1  0.0000000000  0.1140350877  0.0000000000
1  0.0000000000  0.1228070175  0.0000000000
1  0.0000000000  0.1315789474  0.0000000000
1  0.0000000000  0.1403508772  0.0000000000
1  0.0000000000  0.1491228070  0.0000000000
1  0.0000000000  0.1578947368  0.0000000000
1  0.0000000000  0.1666666667  0.0000000000
1  0.0000000000  0.1754385965  0.0000000000
1  0.0000000000  0.1842105263  0.0000000000
1  0.0000000000  0.1929824561  0.0000000000
1  0.0000000000  0.2017543860  0.0000000000
1  0.0000000000  0.2105263158  0.0000000000
1  0.0000000000  0.2192982456  0.0000000000
1  0.0000000000  0.2280701754  0.0000000000
1  0.0000000000  0.2368421053  0.0000000000
1  0.0000000000  0.2456140351  0.0000000000
1  0.0000000000  0.2543859649  0.0000000000
1  0.0000000000  0.2631578947  0.0000000000
1  0.0000000000  0.2719298246  0.0000000000
1  0.0000000000  0.2807017544  0.0000000000
1  0.0000000000  0.2894736842  0.0000000000
1  0.0000000000  0.2982456140  0.0000000000
1  0.0000000000  0.3070175439  0.0000000000
1  0.0000000000  0.3157894737  0.0000000000
1  0.0000000000  0.3245614035  0.0000000000
1  0.0000000000  0.3333333333  0.0000000000
1  0.0000000000  0.3421052632  0.0000000000
1  0.0000000000  0.3508771930  0.0000000000
1  0.0000000000  0.3596491228  0.0000000000
1  0.0000000000  0.3684210526  0.0000000000
1  0.0000000000  0.3771929825  0.0000000000
1  0.0000000000  0.3859649123  0.0000000000
1  0.0000000000  0.3947368421  0.0000000000
1  0.0000000000  0.4035087719  0.0000000000
1  0.0000000000  0.4122807018  0.0000000000
1  0.0000000000  0.4210526316  0.0000000000
1  0.0000000000  0.4298245614  0.0000000000
1  0.0000000000  0.4385964912  0.0000000000
1  0.0000000000  0.4473684211  0.0000000000
1  0.0000000000  0.4561403509  0.0000000000
1  0.0000000000  0.4649122807  0.0000000000
1  0.0000000000  0.4736842105  0.0000000000
1  0.0000000000  0.4824561404  0.0000000000
1  0.0000000000  0.4912280702  0.0000000000
1  0.0000000000  0.5000000000  0.0000000000
1  0.0000000000  0.5000000000  0.0294117647
1  0.0000000000  0.5000000000  0.0588235294
1  0.0000000000  0.5000000000  0.0882352941
1  0.0000000000  0.5000000000  0.1176470588
1  0.0000000000  0.5000000000  0.1470588235
1  0.0000000000  0.5000000000  0.1764705882
1  0.0000000000  0.5000000000  0.2058823529
1  0.0000000000  0.5000000000  0.2352941176
1  0.0000000000  0.5000000000  0.2647058824
1  0.0000000000  0.5000000000  0.2941176471
1  0.0000000000  0.5000000000  0.3235294118
1  0.0000000000  0.5000000000  0.3529411765
1  0.0000000000  0.5000000000  0.3823529412
1  0.0000000000  0.5000000000  0.4117647059
1  0.0000000000  0.5000000000  0.4411764706
1  0.0000000000  0.5000000000  0.4705882353
1  0.0000000000  0.5000000000  0.5000000000
1  0.0000000000  0.4912280702  0.5000000000
1  0.0000000000  0.4824561404  0.5000000000
1  0.0000000000  0.4736842105  0.5000000000
1  0.0000000000  0.4649122807  0.5000000000
1  0.0000000000  0.4561403509  0.5000000000
1  0.0000000000  0.4473684211  0.5000000000
1  0.0000000000  0.4385964912  0.5000000000
1  0.0000000000  0.4298245614  0.5000000000
1  0.0000000000  0.4210526316  0.5000000000
1  0.0000000000  0.4122807018  0.5000000000
1  0.0000000000  0.4035087719  0.5000000000
1  0.0000000000  0.3947368421  0.5000000000
1  0.0000000000  0.3859649123  0.5000000000
1  0.0000000000  0.3771929825  0.5000000000
1  0.0000000000  0.3684210526  0.5000000000
1  0.0000000000  0.3596491228  0.5000000000
1  0.0000000000  0.3508771930  0.5000000000
1  0.0000000000  0.3421052632  0.5000000000
1  0.0000000000  0.3333333333  0.5000000000
1  0.0000000000  0.3245614035  0.5000000000
1  0.0000000000  0.3157894737  0.5000000000
1  0.0000000000  0.3070175439  0.5000000000
1  0.0000000000  0.2982456140  0.5000000000
1  0.0000000000  0.2894736842  0.5000000000
1  0.0000000000  0.2807017544  0.5000000000
1  0.0000000000  0.2719298246  0.5000000000
1  0.0000000000  0.2631578947  0.5000000000
1  0.0000000000  0.2543859649  0.5000000000
1  0.0000000000  0.2456140351  0.5000000000
1  0.0000000000  0.2368421053  0.5000000000
1  0.0000000000  0.2280701754  0.5000000000
1  0.0000000000  0.2192982456  0.5000000000
1  0.0000000000  0.2105263158  0.5000000000
1  0.0000000000  0.2017543860  0.5000000000
1  0.0000000000  0.1929824561  0.5000000000
1  0.0000000000  0.1842105263  0.5000000000
1  0.0000000000  0.1754385965  0.5000000000
1  0.0000000000  0.1666666667  0.5000000000
1  0.0000000000  0.1578947368  0.5000000000
1  0.0000000000  0.1491228070  0.5000000000
1  0.0000000000  0.1403508772  0.5000000000
1  0.0000000000  0.1315789474  0.5000000000
1  0.0000000000  0.1228070175  0.5000000000
1  0.0000000000  0.1140350877  0.5000000000
1  0.0000000000  0.1052631579  0.5000000000
1  0.0000000000  0.0964912281  0.5000000000
1  0.0000000000  0.0877192982  0.5000000000
1  0.0000000000  0.0789473684  0.5000000000
1  0.0000000000  0.0701754386  0.5000000000
1  0.0000000000  0.0614035088  0.5000000000
1  0.0000000000  0.0526315789  0.5000000000
1  0.0000000000  0.0438596491  0.5000000000
1  0.0000000000  0.0350877193  0.5000000000
1  0.0000000000  0.0263157895  0.5000000000
1  0.0000000000  0.0175438596  0.5000000000
1  0.0000000000  0.0087719298  0.5000000000
1  0.0000000000  0.0000000000  0.5000000000
1  -0.0087719298  0.0087719298  0.5000000000
1  -0.0175438596  0.0175438596  0.5000000000
1  -0.0263157895  0.0263157895  0.5000000000
1  -0.0350877193  0.0350877193  0.5000000000
1  -0.0438596491  0.0438596491  0.5000000000
1  -0.0526315789  0.0526315789  0.5000000000
1  -0.0614035088  0.0614035088  0.5000000000
1  -0.0701754386  0.0701754386  0.5000000000
1  -0.0789473684  0.0789473684  0.5000000000
1  -0.0877192982  0.0877192982  0.5000000000
1  -0.0964912281  0.0964912281  0.5000000000
1  -0.1052631579  0.1052631579  0.5000000000
1  -0.1140350877  0.1140350877  0.5000000000
1  -0.1228070175  0.1228070175  0.5000000000
1  -0.1315789474  0.1315789474  0.5000000000
1  -0.1403508772  0.1403508772  0.5000000000
1  -0.1491228070  0.1491228070  0.5000000000
1  -0.1578947368  0.1578947368  0.5000000000
1  -0.1666666667  0.1666666667  0.5000000000
1  -0.1754385965  0.1754385965  0.5000000000
1  -0.1842105263  0.1842105263  0.5000000000
1  -0.1929824561  0.1929824561  0.5000000000
1  -0.2017543860  0.2017543860  0.5000000000
1  -0.2105263158  0.2105263158  0.5000000000
1  -0.2192982456  0.2192982456  0.5000000000
1  -0.2280701754  0.2280701754  0.5000000000
1  -0.2368421053  0.2368421053  0.5000000000
1  -0.2456140351  0.2456140351  0.5000000000
1  -0.2543859649  0.2543859649  0.5000000000
1  -0.2631578947  0.2631578947  0.5000000000
1  -0.2719298246  0.2719298246  0.5000000000
1  -0.2807017544  0.2807017544  0.5000000000
1  -0.2894736842  0.2894736842  0.5000000000
1  -0.2982456140  0.2982456140  0.5000000000
1  -0.3070175439  0.3070175439  0.5000000000
1  -0.3157894737  0.3157894737  0.5000000000
1  -0.3245614035  0.3245614035  0.5000000000
1  -0.3333333333  0.3333333333  0.5000000000
1  -0.3421052632  0.3421052632  0.5000000000
1  -0.3508771930  0.3508771930  0.5000000000
1  -0.3596491228  0.3596491228  0.5000000000
1  -0.3684210526  0.3684210526  0.5000000000
1  -0.3771929825  0.3771929825  0.5000000000
1  -0.3859649123  0.3859649123  0.5000000000
1  -0.3947368421  0.3947368421  0.5000000000
1  -0.4035087719  0.4035087719  0.5000000000
1  -0.4122807018  0.4122807018  0.5000000000
1  -0.4210526316  0.4210526316  0.5000000000
1  -0.4298245614  0.4298245614  0.5000000000
1  -0.4385964912  0.4385964912  0.5000000000
1  -0.4473684211  0.4473684211  0.5000000000
1  -0.4561403509  0.4561403509  0.5000000000
1  -0.4649122807  0.4649122807  0.5000000000
1  -0.4736842105  0.4736842105  0.5000000000
1  -0.4824561404  0.4824561404  0.5000000000
1  -0.4912280702  0.4912280702  0.5000000000
1  -0.5000000000  0.5000000000  0.5000000000
}
  PolynomialRepulsive = SetForAll { Yes }
  OldRepulsiveSum = No
  
  OldSKInterpolation = No
  
  Eigensolver = DivideAndConquer {}
  Dispersion = {}
  ThirdOrder = No
  ThirdOrderFull = No
}
ParserOptions = {
  ParserVersion = 4
  WriteHSDInput = Yes
  WriteXMLInput = No
  StopAfterParsing = No
  IgnoreUnprocessedNodes = No
}
Driver = {}
Analysis = {
  ProjectStates = {}
}
Options = {
  CalculateForces = Yes
}
