Geometry = GenFormat {
1 S
W
1 1  0.0000000000  0.0000000000  0.0000000000
0.000000  0.000000  0.000000
   -1.5824000000     1.5824000000     1.5824000000
    1.5824000000    -1.5824000000     1.5824000000
    1.5824000000     1.5824000000    -1.58240000
}
Hamiltonian = DFTB {
  SCC = No
  SlaterKosterFiles = Type2FileNames {
    Prefix = "./"
    Separator = "-"
    Suffix = ".skf"
    LowerCaseTypeName = No
  }
  MaxAngularMomentum = W {
"d"
  }
 
  Filling = Fermi {
    Temperature [Kelvin] = 0.0
    IndependentKFilling = No
  }
  KPointsAndWeights = Klines {
1  0.0000000000 0.0000000000 0.0000000000
1  0.0064102564 -0.0064102564 0.0064102564
1  0.0128205128 -0.0128205128 0.0128205128
1  0.0192307692 -0.0192307692 0.0192307692
1  0.0256410256 -0.0256410256 0.0256410256
1  0.0320512821 -0.0320512821 0.0320512821
1  0.0384615385 -0.0384615385 0.0384615385
1  0.0448717949 -0.0448717949 0.0448717949
1  0.0512820513 -0.0512820513 0.0512820513
1  0.0576923077 -0.0576923077 0.0576923077
1  0.0641025641 -0.0641025641 0.0641025641
1  0.0705128205 -0.0705128205 0.0705128205
1  0.0769230769 -0.0769230769 0.0769230769
1  0.0833333333 -0.0833333333 0.0833333333
1  0.0897435897 -0.0897435897 0.0897435897
1  0.0961538462 -0.0961538462 0.0961538462
1  0.1025641026 -0.1025641026 0.1025641026
1  0.1089743590 -0.1089743590 0.1089743590
1  0.1153846154 -0.1153846154 0.1153846154
1  0.1217948718 -0.1217948718 0.1217948718
1  0.1282051282 -0.1282051282 0.1282051282
1  0.1346153846 -0.1346153846 0.1346153846
1  0.1410256410 -0.1410256410 0.1410256410
1  0.1474358974 -0.1474358974 0.1474358974
1  0.1538461538 -0.1538461538 0.1538461538
1  0.1602564103 -0.1602564103 0.1602564103
1  0.1666666667 -0.1666666667 0.1666666667
1  0.1730769231 -0.1730769231 0.1730769231
1  0.1794871795 -0.1794871795 0.1794871795
1  0.1858974359 -0.1858974359 0.1858974359
1  0.1923076923 -0.1923076923 0.1923076923
1  0.1987179487 -0.1987179487 0.1987179487
1  0.2051282051 -0.2051282051 0.2051282051
1  0.2115384615 -0.2115384615 0.2115384615
1  0.2179487179 -0.2179487179 0.2179487179
1  0.2243589744 -0.2243589744 0.2243589744
1  0.2307692308 -0.2307692308 0.2307692308
1  0.2371794872 -0.2371794872 0.2371794872
1  0.2435897436 -0.2435897436 0.2435897436
1  0.2500000000 -0.2500000000 0.2500000000
1  0.2564102564 -0.2564102564 0.2564102564
1  0.2628205128 -0.2628205128 0.2628205128
1  0.2692307692 -0.2692307692 0.2692307692
1  0.2756410256 -0.2756410256 0.2756410256
1  0.2820512821 -0.2820512821 0.2820512821
1  0.2884615385 -0.2884615385 0.2884615385
1  0.2948717949 -0.2948717949 0.2948717949
1  0.3012820513 -0.3012820513 0.3012820513
1  0.3076923077 -0.3076923077 0.3076923077
1  0.3141025641 -0.3141025641 0.3141025641
1  0.3205128205 -0.3205128205 0.3205128205
1  0.3269230769 -0.3269230769 0.3269230769
1  0.3333333333 -0.3333333333 0.3333333333
1  0.3397435897 -0.3397435897 0.3397435897
1  0.3461538462 -0.3461538462 0.3461538462
1  0.3525641026 -0.3525641026 0.3525641026
1  0.3589743590 -0.3589743590 0.3589743590
1  0.3653846154 -0.3653846154 0.3653846154
1  0.3717948718 -0.3717948718 0.3717948718
1  0.3782051282 -0.3782051282 0.3782051282
1  0.3846153846 -0.3846153846 0.3846153846
1  0.3910256410 -0.3910256410 0.3910256410
1  0.3974358974 -0.3974358974 0.3974358974
1  0.4038461538 -0.4038461538 0.4038461538
1  0.4102564103 -0.4102564103 0.4102564103
1  0.4166666667 -0.4166666667 0.4166666667
1  0.4230769231 -0.4230769231 0.4230769231
1  0.4294871795 -0.4294871795 0.4294871795
1  0.4358974359 -0.4358974359 0.4358974359
1  0.4423076923 -0.4423076923 0.4423076923
1  0.4487179487 -0.4487179487 0.4487179487
1  0.4551282051 -0.4551282051 0.4551282051
1  0.4615384615 -0.4615384615 0.4615384615
1  0.4679487179 -0.4679487179 0.4679487179
1  0.4743589744 -0.4743589744 0.4743589744
1  0.4807692308 -0.4807692308 0.4807692308
1  0.4871794872 -0.4871794872 0.4871794872
1  0.4935897436 -0.4935897436 0.4935897436
1  0.5000000000 -0.5000000000 0.5000000000
1  0.4909090909 -0.4909090909 0.5000000000
1  0.4818181818 -0.4818181818 0.5000000000
1  0.4727272727 -0.4727272727 0.5000000000
1  0.4636363636 -0.4636363636 0.5000000000
1  0.4545454545 -0.4545454545 0.5000000000
1  0.4454545455 -0.4454545455 0.5000000000
1  0.4363636364 -0.4363636364 0.5000000000
1  0.4272727273 -0.4272727273 0.5000000000
1  0.4181818182 -0.4181818182 0.5000000000
1  0.4090909091 -0.4090909091 0.5000000000
1  0.4000000000 -0.4000000000 0.5000000000
1  0.3909090909 -0.3909090909 0.5000000000
1  0.3818181818 -0.3818181818 0.5000000000
1  0.3727272727 -0.3727272727 0.5000000000
1  0.3636363636 -0.3636363636 0.5000000000
1  0.3545454545 -0.3545454545 0.5000000000
1  0.3454545455 -0.3454545455 0.5000000000
1  0.3363636364 -0.3363636364 0.5000000000
1  0.3272727273 -0.3272727273 0.5000000000
1  0.3181818182 -0.3181818182 0.5000000000
1  0.3090909091 -0.3090909091 0.5000000000
1  0.3000000000 -0.3000000000 0.5000000000
1  0.2909090909 -0.2909090909 0.5000000000
1  0.2818181818 -0.2818181818 0.5000000000
1  0.2727272727 -0.2727272727 0.5000000000
1  0.2636363636 -0.2636363636 0.5000000000
1  0.2545454545 -0.2545454545 0.5000000000
1  0.2454545455 -0.2454545455 0.5000000000
1  0.2363636364 -0.2363636364 0.5000000000
1  0.2272727273 -0.2272727273 0.5000000000
1  0.2181818182 -0.2181818182 0.5000000000
1  0.2090909091 -0.2090909091 0.5000000000
1  0.2000000000 -0.2000000000 0.5000000000
1  0.1909090909 -0.1909090909 0.5000000000
1  0.1818181818 -0.1818181818 0.5000000000
1  0.1727272727 -0.1727272727 0.5000000000
1  0.1636363636 -0.1636363636 0.5000000000
1  0.1545454545 -0.1545454545 0.5000000000
1  0.1454545455 -0.1454545455 0.5000000000
1  0.1363636364 -0.1363636364 0.5000000000
1  0.1272727273 -0.1272727273 0.5000000000
1  0.1181818182 -0.1181818182 0.5000000000
1  0.1090909091 -0.1090909091 0.5000000000
1  0.1000000000 -0.1000000000 0.5000000000
1  0.0909090909 -0.0909090909 0.5000000000
1  0.0818181818 -0.0818181818 0.5000000000
1  0.0727272727 -0.0727272727 0.5000000000
1  0.0636363636 -0.0636363636 0.5000000000
1  0.0545454545 -0.0545454545 0.5000000000
1  0.0454545455 -0.0454545455 0.5000000000
1  0.0363636364 -0.0363636364 0.5000000000
1  0.0272727273 -0.0272727273 0.5000000000
1  0.0181818182 -0.0181818182 0.5000000000
1  0.0090909091 -0.0090909091 0.5000000000
1  0.0000000000 0.0000000000 0.5000000000
1  0.0000000000 0.0000000000 0.4909090909
1  0.0000000000 0.0000000000 0.4818181818
1  0.0000000000 0.0000000000 0.4727272727
1  0.0000000000 0.0000000000 0.4636363636
1  0.0000000000 0.0000000000 0.4545454545
1  0.0000000000 0.0000000000 0.4454545455
1  0.0000000000 0.0000000000 0.4363636364
1  0.0000000000 0.0000000000 0.4272727273
1  0.0000000000 0.0000000000 0.4181818182
1  0.0000000000 0.0000000000 0.4090909091
1  0.0000000000 0.0000000000 0.4000000000
1  0.0000000000 0.0000000000 0.3909090909
1  0.0000000000 0.0000000000 0.3818181818
1  0.0000000000 0.0000000000 0.3727272727
1  0.0000000000 0.0000000000 0.3636363636
1  0.0000000000 0.0000000000 0.3545454545
1  0.0000000000 0.0000000000 0.3454545455
1  0.0000000000 0.0000000000 0.3363636364
1  0.0000000000 0.0000000000 0.3272727273
1  0.0000000000 0.0000000000 0.3181818182
1  0.0000000000 0.0000000000 0.3090909091
1  0.0000000000 0.0000000000 0.3000000000
1  0.0000000000 0.0000000000 0.2909090909
1  0.0000000000 0.0000000000 0.2818181818
1  0.0000000000 0.0000000000 0.2727272727
1  0.0000000000 0.0000000000 0.2636363636
1  0.0000000000 0.0000000000 0.2545454545
1  0.0000000000 0.0000000000 0.2454545455
1  0.0000000000 0.0000000000 0.2363636364
1  0.0000000000 0.0000000000 0.2272727273
1  0.0000000000 0.0000000000 0.2181818182
1  0.0000000000 0.0000000000 0.2090909091
1  0.0000000000 0.0000000000 0.2000000000
1  0.0000000000 0.0000000000 0.1909090909
1  0.0000000000 0.0000000000 0.1818181818
1  0.0000000000 0.0000000000 0.1727272727
1  0.0000000000 0.0000000000 0.1636363636
1  0.0000000000 0.0000000000 0.1545454545
1  0.0000000000 0.0000000000 0.1454545455
1  0.0000000000 0.0000000000 0.1363636364
1  0.0000000000 0.0000000000 0.1272727273
1  0.0000000000 0.0000000000 0.1181818182
1  0.0000000000 0.0000000000 0.1090909091
1  0.0000000000 0.0000000000 0.1000000000
1  0.0000000000 0.0000000000 0.0909090909
1  0.0000000000 0.0000000000 0.0818181818
1  0.0000000000 0.0000000000 0.0727272727
1  0.0000000000 0.0000000000 0.0636363636
1  0.0000000000 0.0000000000 0.0545454545
1  0.0000000000 0.0000000000 0.0454545455
1  0.0000000000 0.0000000000 0.0363636364
1  0.0000000000 0.0000000000 0.0272727273
1  0.0000000000 0.0000000000 0.0181818182
1  0.0000000000 0.0000000000 0.0090909091
1  0.0000000000 0.0000000000 0.0000000000
1  0.0037313433 0.0037313433 0.0037313433
1  0.0074626866 0.0074626866 0.0074626866
1  0.0111940299 0.0111940299 0.0111940299
1  0.0149253731 0.0149253731 0.0149253731
1  0.0186567164 0.0186567164 0.0186567164
1  0.0223880597 0.0223880597 0.0223880597
1  0.0261194030 0.0261194030 0.0261194030
1  0.0298507463 0.0298507463 0.0298507463
1  0.0335820896 0.0335820896 0.0335820896
1  0.0373134328 0.0373134328 0.0373134328
1  0.0410447761 0.0410447761 0.0410447761
1  0.0447761194 0.0447761194 0.0447761194
1  0.0485074627 0.0485074627 0.0485074627
1  0.0522388060 0.0522388060 0.0522388060
1  0.0559701493 0.0559701493 0.0559701493
1  0.0597014925 0.0597014925 0.0597014925
1  0.0634328358 0.0634328358 0.0634328358
1  0.0671641791 0.0671641791 0.0671641791
1  0.0708955224 0.0708955224 0.0708955224
1  0.0746268657 0.0746268657 0.0746268657
1  0.0783582090 0.0783582090 0.0783582090
1  0.0820895522 0.0820895522 0.0820895522
1  0.0858208955 0.0858208955 0.0858208955
1  0.0895522388 0.0895522388 0.0895522388
1  0.0932835821 0.0932835821 0.0932835821
1  0.0970149254 0.0970149254 0.0970149254
1  0.1007462687 0.1007462687 0.1007462687
1  0.1044776119 0.1044776119 0.1044776119
1  0.1082089552 0.1082089552 0.1082089552
1  0.1119402985 0.1119402985 0.1119402985
1  0.1156716418 0.1156716418 0.1156716418
1  0.1194029851 0.1194029851 0.1194029851
1  0.1231343284 0.1231343284 0.1231343284
1  0.1268656716 0.1268656716 0.1268656716
1  0.1305970149 0.1305970149 0.1305970149
1  0.1343283582 0.1343283582 0.1343283582
1  0.1380597015 0.1380597015 0.1380597015
1  0.1417910448 0.1417910448 0.1417910448
1  0.1455223881 0.1455223881 0.1455223881
1  0.1492537313 0.1492537313 0.1492537313
1  0.1529850746 0.1529850746 0.1529850746
1  0.1567164179 0.1567164179 0.1567164179
1  0.1604477612 0.1604477612 0.1604477612
1  0.1641791045 0.1641791045 0.1641791045
1  0.1679104478 0.1679104478 0.1679104478
1  0.1716417910 0.1716417910 0.1716417910
1  0.1753731343 0.1753731343 0.1753731343
1  0.1791044776 0.1791044776 0.1791044776
1  0.1828358209 0.1828358209 0.1828358209
1  0.1865671642 0.1865671642 0.1865671642
1  0.1902985075 0.1902985075 0.1902985075
1  0.1940298507 0.1940298507 0.1940298507
1  0.1977611940 0.1977611940 0.1977611940
1  0.2014925373 0.2014925373 0.2014925373
1  0.2052238806 0.2052238806 0.2052238806
1  0.2089552239 0.2089552239 0.2089552239
1  0.2126865672 0.2126865672 0.2126865672
1  0.2164179104 0.2164179104 0.2164179104
1  0.2201492537 0.2201492537 0.2201492537
1  0.2238805970 0.2238805970 0.2238805970
1  0.2276119403 0.2276119403 0.2276119403
1  0.2313432836 0.2313432836 0.2313432836
1  0.2350746269 0.2350746269 0.2350746269
1  0.2388059701 0.2388059701 0.2388059701
1  0.2425373134 0.2425373134 0.2425373134
1  0.2462686567 0.2462686567 0.2462686567
1  0.2500000000 0.2500000000 0.2500000000
1  0.2537313433 0.2388059701 0.2537313433
1  0.2574626866 0.2276119403 0.2574626866
1  0.2611940299 0.2164179104 0.2611940299
1  0.2649253731 0.2052238806 0.2649253731
1  0.2686567164 0.1940298507 0.2686567164
1  0.2723880597 0.1828358209 0.2723880597
1  0.2761194030 0.1716417910 0.2761194030
1  0.2798507463 0.1604477612 0.2798507463
1  0.2835820896 0.1492537313 0.2835820896
1  0.2873134328 0.1380597015 0.2873134328
1  0.2910447761 0.1268656716 0.2910447761
1  0.2947761194 0.1156716418 0.2947761194
1  0.2985074627 0.1044776119 0.2985074627
1  0.3022388060 0.0932835821 0.3022388060
1  0.3059701493 0.0820895522 0.3059701493
1  0.3097014925 0.0708955224 0.3097014925
1  0.3134328358 0.0597014925 0.3134328358
1  0.3171641791 0.0485074627 0.3171641791
1  0.3208955224 0.0373134328 0.3208955224
1  0.3246268657 0.0261194030 0.3246268657
1  0.3283582090 0.0149253731 0.3283582090
1  0.3320895522 0.0037313433 0.3320895522
1  0.3358208955 -0.0074626866 0.3358208955
1  0.3395522388 -0.0186567164 0.3395522388
1  0.3432835821 -0.0298507463 0.3432835821
1  0.3470149254 -0.0410447761 0.3470149254
1  0.3507462687 -0.0522388060 0.3507462687
1  0.3544776119 -0.0634328358 0.3544776119
1  0.3582089552 -0.0746268657 0.3582089552
1  0.3619402985 -0.0858208955 0.3619402985
1  0.3656716418 -0.0970149254 0.3656716418
1  0.3694029851 -0.1082089552 0.3694029851
1  0.3731343284 -0.1194029851 0.3731343284
1  0.3768656716 -0.1305970149 0.3768656716
1  0.3805970149 -0.1417910448 0.3805970149
1  0.3843283582 -0.1529850746 0.3843283582
1  0.3880597015 -0.1641791045 0.3880597015
1  0.3917910448 -0.1753731343 0.3917910448
1  0.3955223881 -0.1865671642 0.3955223881
1  0.3992537313 -0.1977611940 0.3992537313
1  0.4029850746 -0.2089552239 0.4029850746
1  0.4067164179 -0.2201492537 0.4067164179
1  0.4104477612 -0.2313432836 0.4104477612
1  0.4141791045 -0.2425373134 0.4141791045
1  0.4179104478 -0.2537313433 0.4179104478
1  0.4216417910 -0.2649253731 0.4216417910
1  0.4253731343 -0.2761194030 0.4253731343
1  0.4291044776 -0.2873134328 0.4291044776
1  0.4328358209 -0.2985074627 0.4328358209
1  0.4365671642 -0.3097014925 0.4365671642
1  0.4402985075 -0.3208955224 0.4402985075
1  0.4440298507 -0.3320895522 0.4440298507
1  0.4477611940 -0.3432835821 0.4477611940
1  0.4514925373 -0.3544776119 0.4514925373
1  0.4552238806 -0.3656716418 0.4552238806
1  0.4589552239 -0.3768656716 0.4589552239
1  0.4626865672 -0.3880597015 0.4626865672
1  0.4664179104 -0.3992537313 0.4664179104
1  0.4701492537 -0.4104477612 0.4701492537
1  0.4738805970 -0.4216417910 0.4738805970
1  0.4776119403 -0.4328358209 0.4776119403
1  0.4813432836 -0.4440298507 0.4813432836
1  0.4850746269 -0.4552238806 0.4850746269
1  0.4888059701 -0.4664179104 0.4888059701
1  0.4925373134 -0.4776119403 0.4925373134
1  0.4962686567 -0.4888059701 0.4962686567
1  0.5000000000 -0.5000000000 0.5000000000
1  0.2500000000 0.2500000000 0.2500000000
1  0.2434210526 0.2434210526 0.2565789474
1  0.2368421053 0.2368421053 0.2631578947
1  0.2302631579 0.2302631579 0.2697368421
1  0.2236842105 0.2236842105 0.2763157895
1  0.2171052632 0.2171052632 0.2828947368
1  0.2105263158 0.2105263158 0.2894736842
1  0.2039473684 0.2039473684 0.2960526316
1  0.1973684211 0.1973684211 0.3026315789
1  0.1907894737 0.1907894737 0.3092105263
1  0.1842105263 0.1842105263 0.3157894737
1  0.1776315789 0.1776315789 0.3223684211
1  0.1710526316 0.1710526316 0.3289473684
1  0.1644736842 0.1644736842 0.3355263158
1  0.1578947368 0.1578947368 0.3421052632
1  0.1513157895 0.1513157895 0.3486842105
1  0.1447368421 0.1447368421 0.3552631579
1  0.1381578947 0.1381578947 0.3618421053
1  0.1315789474 0.1315789474 0.3684210526
1  0.1250000000 0.1250000000 0.3750000000
1  0.1184210526 0.1184210526 0.3815789474
1  0.1118421053 0.1118421053 0.3881578947
1  0.1052631579 0.1052631579 0.3947368421
1  0.0986842105 0.0986842105 0.4013157895
1  0.0921052632 0.0921052632 0.4078947368
1  0.0855263158 0.0855263158 0.4144736842
1  0.0789473684 0.0789473684 0.4210526316
1  0.0723684211 0.0723684211 0.4276315789
1  0.0657894737 0.0657894737 0.4342105263
1  0.0592105263 0.0592105263 0.4407894737
1  0.0526315789 0.0526315789 0.4473684211
1  0.0460526316 0.0460526316 0.4539473684
1  0.0394736842 0.0394736842 0.4605263158
1  0.0328947368 0.0328947368 0.4671052632
1  0.0263157895 0.0263157895 0.4736842105
1  0.0197368421 0.0197368421 0.4802631579
1  0.0131578947 0.0131578947 0.4868421053
1  0.0065789474 0.0065789474 0.4934210526
1  0.0000000000 0.0000000000 0.5000000000
  }
  PolynomialRepulsive = SetForAll { Yes }
  OldRepulsiveSum = No
  OrbitalResolvedSCC = No
  OldSKInterpolation = No
  Charge = 0.000000000000000E+000
  Eigensolver = DivideAndConquer {}
  Dispersion = {}
  ThirdOrder = No
  ThirdOrderFull = No
}
ParserOptions = {
  ParserVersion = 4
  WriteHSDInput = Yes
  WriteXMLInput = No
  StopAfterParsing = No
  IgnoreUnprocessedNodes = No
}
Driver = {}
Analysis = {
  ProjectStates = {}
}
Options = {
  
}
